400
150 150
1 105 680
2 105 170
3 105 243
4 105 720
5 105 413
6 105 774
7 105 703
8 105 710
9 104 301
10 104 17
11 104 928
12 103 862
13 103 838
14 103 238
15 103 131
16 103 602
17 103 1
18 103 148
19 102 608
20 102 250
21 102 978
22 102 73
23 102 819
24 101 750
25 101 330
26 101 290
27 101 429
28 100 619
29 100 765
30 100 119
31 99 29
32 99 684
33 98 388
34 98 507
35 98 510
36 98 564
37 98 914
38 98 120
39 98 344
40 98 398
41 98 683
42 98 279
43 97 205
44 97 399
45 97 829
46 97 738
47 97 425
48 97 145
49 96 931
50 96 354
51 95 766
52 94 237
53 94 108
54 93 326
55 93 764
56 92 170
57 92 6
58 92 582
59 92 566
60 92 115
61 91 428
62 91 117
63 91 515
64 91 70
65 90 69
66 90 433
67 90 636
68 90 980
69 90 927
70 89 938
71 89 846
72 89 307
73 89 318
74 88 782
75 88 520
76 88 788
77 88 341
78 88 282
79 87 249
80 87 342
81 87 658
82 87 47
83 87 329
84 86 83
85 86 280
86 86 178
87 86 139
88 85 256
89 85 593
90 85 57
91 85 914
92 84 155
93 84 138
94 83 105
95 83 322
96 82 522
97 82 294
98 82 582
99 82 402
100 82 678
101 82 223
102 82 654
103 82 120
104 82 84
105 82 745
106 82 216
107 81 500
108 81 653
109 81 979
110 81 362
111 81 815
112 80 687
113 80 283
114 80 861
115 80 357
116 80 439
117 79 898
118 79 816
119 78 539
120 78 968
121 78 939
122 77 182
123 77 984
124 77 500
125 77 474
126 77 427
127 77 137
128 76 279
129 76 99
130 76 959
131 75 56
132 75 180
133 75 34
134 74 940
135 74 292
136 74 845
137 74 604
138 74 329
139 73 589
140 73 274
141 73 108
142 73 620
143 73 886
144 73 389
145 73 711
146 73 362
147 73 511
148 72 599
149 72 428
150 72 363
151 72 345
152 71 564
153 71 8
154 71 992
155 71 239
156 71 731
157 70 962
158 70 150
159 70 208
160 70 19
161 70 1000
162 70 226
163 70 789
164 69 643
165 69 806
166 69 912
167 69 623
168 69 914
169 69 109
170 69 666
171 68 512
172 68 30
173 68 916
174 67 129
175 67 239
176 67 235
177 66 970
178 66 615
179 65 747
180 65 807
181 65 91
182 63 200
183 63 78
184 63 71
185 63 234
186 62 340
187 62 776
188 62 881
189 61 291
190 61 734
191 61 540
192 61 60
193 61 198
194 60 461
195 60 939
196 60 766
197 60 215
198 60 370
199 60 88
200 60 101
201 60 343
202 59 549
203 59 523
204 59 398
205 59 35
206 59 182
207 58 790
208 58 872
209 58 472
210 58 560
211 57 684
212 57 128
213 57 515
214 57 505
215 56 490
216 56 199
217 56 991
218 56 827
219 55 416
220 55 467
221 55 891
222 54 884
223 54 292
224 54 824
225 54 903
226 53 765
227 53 557
228 53 334
229 53 475
230 53 717
231 53 275
232 53 996
233 53 351
234 53 584
235 52 368
236 52 356
237 52 868
238 52 199
239 52 867
240 52 152
241 52 388
242 51 285
243 51 946
244 51 561
245 50 75
246 50 297
247 50 266
248 49 877
249 49 56
250 48 234
251 48 498
252 48 322
253 47 871
254 47 460
255 47 593
256 47 400
257 47 311
258 46 558
259 46 251
260 46 457
261 45 434
262 45 301
263 45 607
264 45 916
265 44 406
266 44 10
267 44 933
268 44 753
269 43 798
270 43 290
271 42 178
272 42 731
273 42 370
274 42 981
275 42 361
276 41 143
277 41 624
278 41 499
279 41 676
280 40 472
281 40 666
282 40 904
283 40 575
284 40 686
285 39 194
286 39 342
287 39 25
288 39 926
289 39 131
290 39 153
291 38 724
292 38 929
293 38 154
294 37 318
295 37 799
296 37 219
297 37 279
298 36 903
299 36 8
300 36 720
301 36 614
302 35 740
303 35 762
304 35 991
305 35 868
306 35 970
307 35 15
308 35 693
309 35 454
310 35 893
311 34 408
312 34 683
313 34 517
314 34 629
315 33 400
316 33 643
317 32 92
318 31 670
319 31 288
320 31 921
321 31 656
322 31 423
323 30 611
324 30 469
325 30 312
326 30 29
327 30 709
328 29 264
329 29 318
330 29 771
331 29 770
332 29 858
333 28 501
334 27 905
335 27 514
336 27 772
337 26 648
338 26 569
339 26 44
340 26 248
341 26 872
342 26 359
343 25 265
344 25 427
345 25 322
346 25 935
347 25 267
348 24 382
349 24 60
350 24 26
351 24 721
352 24 900
353 24 36
354 24 861
355 24 277
356 23 184
357 23 191
358 23 373
359 23 799
360 23 590
361 23 710
362 23 370
363 22 193
364 22 728
365 22 27
366 22 206
367 21 255
368 21 920
369 20 280
370 20 637
371 20 684
372 20 568
373 20 296
374 20 522
375 19 199
376 19 371
377 18 818
378 18 89
379 18 739
380 18 123
381 18 147
382 18 591
383 18 636
384 17 278
385 17 2
386 17 349
387 17 219
388 17 886
389 16 740
390 16 902
391 16 568
392 16 152
393 16 835
394 15 449
395 15 715
396 15 134
397 15 701
398 15 847
399 15 70
400 15 659
